129423
66,59,44,10,27,28,87,1,58,76,93,12,92,23,57,83,80,89,74,102,14,47,61,103,4,15,24,43,79,91,60,96,18,7,84,53,63,32,75,35,51,100,72,82,33,39,49,37,70,94,78,3,101,105,38,104,11,41,67,95,54,71,36,85,48,73,2,22,62,25,45,99,81,42,19,68,50,26,34,9,8,97,106,98,69,6,77,46,86,21,17,90,64,16,20,56,40,88,13,31,65,52,5,55,29,30